Gurobi-model-differential-analysis-of-1-rounds.lp
Minimize
s0_0 + s0_1 + s0_2 + s0_3 + s0_4 + s0_5 + s0_6 + s0_7 + s0_8 + s0_9 + s0_10 + s0_11 + s0_12 + s0_13 + s0_14 + s0_15

Subject To
x0_0 + x0_1 + x0_2 + x0_3 + x0_4 + x0_5 + x0_6 + x0_7 + x0_8 + x0_9 + x0_10 + x0_11 + x0_12 + x0_13 + x0_14 + x0_15 + x0_16 + x0_17 + x0_18 + x0_19 + x0_20 + x0_21 + x0_22 + x0_23 + x0_24 + x0_25 + x0_26 + x0_27 + x0_28 + x0_29 + x0_30 + x0_31 + x0_32 + x0_33 + x0_34 + x0_35 + x0_36 + x0_37 + x0_38 + x0_39 + x0_40 + x0_41 + x0_42 + x0_43 + x0_44 + x0_45 + x0_46 + x0_47 + x0_48 + x0_49 + x0_50 + x0_51 + x0_52 + x0_53 + x0_54 + x0_55 + x0_56 + x0_57 + x0_58 + x0_59 + x0_60 + x0_61 + x0_62 + x0_63 >= 1
x0_24 - s0_0 <= 0
x0_17 - s0_0 <= 0
x0_21 - s0_0 <= 0
x0_25 - s0_0 <= 0
x0_24 + x0_17 + x0_21 + x0_25 - s0_0 >= 0
4 x0_24 + 4 x0_17 + 4 x0_21 + 4 x0_25 - f0_0 - f0_1 - f0_2 - f0_3 >= 0
4 f0_0 + 4 f0_1 + 4 f0_2 + 4 f0_3 - x0_24 - x0_17 - x0_21 - x0_25 >= 0
x0_29 - s0_1 <= 0
x0_22 - s0_1 <= 0
x0_18 - s0_1 <= 0
x0_30 - s0_1 <= 0
x0_29 + x0_22 + x0_18 + x0_30 - s0_1 >= 0
4 x0_29 + 4 x0_22 + 4 x0_18 + 4 x0_30 - f0_4 - f0_5 - f0_6 - f0_7 >= 0
4 f0_4 + 4 f0_5 + 4 f0_6 + 4 f0_7 - x0_29 - x0_22 - x0_18 - x0_30 >= 0
x0_26 - s0_2 <= 0
x0_19 - s0_2 <= 0
x0_23 - s0_2 <= 0
x0_27 - s0_2 <= 0
x0_26 + x0_19 + x0_23 + x0_27 - s0_2 >= 0
4 x0_26 + 4 x0_19 + 4 x0_23 + 4 x0_27 - f0_8 - f0_9 - f0_10 - f0_11 >= 0
4 f0_8 + 4 f0_9 + 4 f0_10 + 4 f0_11 - x0_26 - x0_19 - x0_23 - x0_27 >= 0
x0_31 - s0_3 <= 0
x0_11 - s0_3 <= 0
x0_15 - s0_3 <= 0
x0_3 - s0_3 <= 0
x0_31 + x0_11 + x0_15 + x0_3 - s0_3 >= 0
4 x0_31 + 4 x0_11 + 4 x0_15 + 4 x0_3 - f0_12 - f0_13 - f0_14 - f0_15 >= 0
4 f0_12 + 4 f0_13 + 4 f0_14 + 4 f0_15 - x0_31 - x0_11 - x0_15 - x0_3 >= 0
x0_7 - s0_4 <= 0
x0_14 - s0_4 <= 0
x0_10 - s0_4 <= 0
x0_6 - s0_4 <= 0
x0_7 + x0_14 + x0_10 + x0_6 - s0_4 >= 0
4 x0_7 + 4 x0_14 + 4 x0_10 + 4 x0_6 - f0_16 - f0_17 - f0_18 - f0_19 >= 0
4 f0_16 + 4 f0_17 + 4 f0_18 + 4 f0_19 - x0_7 - x0_14 - x0_10 - x0_6 >= 0
x0_2 - s0_5 <= 0
x0_9 - s0_5 <= 0
x0_13 - s0_5 <= 0
x0_1 - s0_5 <= 0
x0_2 + x0_9 + x0_13 + x0_1 - s0_5 >= 0
4 x0_2 + 4 x0_9 + 4 x0_13 + 4 x0_1 - f0_20 - f0_21 - f0_22 - f0_23 >= 0
4 f0_20 + 4 f0_21 + 4 f0_22 + 4 f0_23 - x0_2 - x0_9 - x0_13 - x0_1 >= 0
x0_5 - s0_6 <= 0
x0_12 - s0_6 <= 0
x0_8 - s0_6 <= 0
x0_4 - s0_6 <= 0
x0_5 + x0_12 + x0_8 + x0_4 - s0_6 >= 0
4 x0_5 + 4 x0_12 + 4 x0_8 + 4 x0_4 - f0_24 - f0_25 - f0_26 - f0_27 >= 0
4 f0_24 + 4 f0_25 + 4 f0_26 + 4 f0_27 - x0_5 - x0_12 - x0_8 - x0_4 >= 0
x0_0 - s0_7 <= 0
x0_20 - s0_7 <= 0
x0_16 - s0_7 <= 0
x0_28 - s0_7 <= 0
x0_0 + x0_20 + x0_16 + x0_28 - s0_7 >= 0
4 x0_0 + 4 x0_20 + 4 x0_16 + 4 x0_28 - f0_28 - f0_29 - f0_30 - f0_31 >= 0
4 f0_28 + 4 f0_29 + 4 f0_30 + 4 f0_31 - x0_0 - x0_20 - x0_16 - x0_28 >= 0
d0_0 - x0_32 >= 0
d0_0 - f0_0 >= 0
d0_0 - f0_32 >= 0
x0_32 + f0_0 + f0_32 <= 2
x0_32 + f0_0 + f0_32 - 2 d0_0 >= 0
d0_1 - x0_33 >= 0
d0_1 - f0_1 >= 0
d0_1 - f0_33 >= 0
x0_33 + f0_1 + f0_33 <= 2
x0_33 + f0_1 + f0_33 - 2 d0_1 >= 0
d0_2 - x0_34 >= 0
d0_2 - f0_2 >= 0
d0_2 - f0_34 >= 0
x0_34 + f0_2 + f0_34 <= 2
x0_34 + f0_2 + f0_34 - 2 d0_2 >= 0
d0_3 - x0_35 >= 0
d0_3 - f0_3 >= 0
d0_3 - f0_35 >= 0
x0_35 + f0_3 + f0_35 <= 2
x0_35 + f0_3 + f0_35 - 2 d0_3 >= 0
d0_4 - x0_36 >= 0
d0_4 - f0_4 >= 0
d0_4 - f0_36 >= 0
x0_36 + f0_4 + f0_36 <= 2
x0_36 + f0_4 + f0_36 - 2 d0_4 >= 0
d0_5 - x0_37 >= 0
d0_5 - f0_5 >= 0
d0_5 - f0_37 >= 0
x0_37 + f0_5 + f0_37 <= 2
x0_37 + f0_5 + f0_37 - 2 d0_5 >= 0
d0_6 - x0_38 >= 0
d0_6 - f0_6 >= 0
d0_6 - f0_38 >= 0
x0_38 + f0_6 + f0_38 <= 2
x0_38 + f0_6 + f0_38 - 2 d0_6 >= 0
d0_7 - x0_39 >= 0
d0_7 - f0_7 >= 0
d0_7 - f0_39 >= 0
x0_39 + f0_7 + f0_39 <= 2
x0_39 + f0_7 + f0_39 - 2 d0_7 >= 0
d0_8 - x0_40 >= 0
d0_8 - f0_8 >= 0
d0_8 - f0_40 >= 0
x0_40 + f0_8 + f0_40 <= 2
x0_40 + f0_8 + f0_40 - 2 d0_8 >= 0
d0_9 - x0_41 >= 0
d0_9 - f0_9 >= 0
d0_9 - f0_41 >= 0
x0_41 + f0_9 + f0_41 <= 2
x0_41 + f0_9 + f0_41 - 2 d0_9 >= 0
d0_10 - x0_42 >= 0
d0_10 - f0_10 >= 0
d0_10 - f0_42 >= 0
x0_42 + f0_10 + f0_42 <= 2
x0_42 + f0_10 + f0_42 - 2 d0_10 >= 0
d0_11 - x0_43 >= 0
d0_11 - f0_11 >= 0
d0_11 - f0_43 >= 0
x0_43 + f0_11 + f0_43 <= 2
x0_43 + f0_11 + f0_43 - 2 d0_11 >= 0
d0_12 - x0_44 >= 0
d0_12 - f0_12 >= 0
d0_12 - f0_44 >= 0
x0_44 + f0_12 + f0_44 <= 2
x0_44 + f0_12 + f0_44 - 2 d0_12 >= 0
d0_13 - x0_45 >= 0
d0_13 - f0_13 >= 0
d0_13 - f0_45 >= 0
x0_45 + f0_13 + f0_45 <= 2
x0_45 + f0_13 + f0_45 - 2 d0_13 >= 0
d0_14 - x0_46 >= 0
d0_14 - f0_14 >= 0
d0_14 - f0_46 >= 0
x0_46 + f0_14 + f0_46 <= 2
x0_46 + f0_14 + f0_46 - 2 d0_14 >= 0
d0_15 - x0_47 >= 0
d0_15 - f0_15 >= 0
d0_15 - f0_47 >= 0
x0_47 + f0_15 + f0_47 <= 2
x0_47 + f0_15 + f0_47 - 2 d0_15 >= 0
d0_16 - x0_48 >= 0
d0_16 - f0_16 >= 0
d0_16 - f0_48 >= 0
x0_48 + f0_16 + f0_48 <= 2
x0_48 + f0_16 + f0_48 - 2 d0_16 >= 0
d0_17 - x0_49 >= 0
d0_17 - f0_17 >= 0
d0_17 - f0_49 >= 0
x0_49 + f0_17 + f0_49 <= 2
x0_49 + f0_17 + f0_49 - 2 d0_17 >= 0
d0_18 - x0_50 >= 0
d0_18 - f0_18 >= 0
d0_18 - f0_50 >= 0
x0_50 + f0_18 + f0_50 <= 2
x0_50 + f0_18 + f0_50 - 2 d0_18 >= 0
d0_19 - x0_51 >= 0
d0_19 - f0_19 >= 0
d0_19 - f0_51 >= 0
x0_51 + f0_19 + f0_51 <= 2
x0_51 + f0_19 + f0_51 - 2 d0_19 >= 0
d0_20 - x0_52 >= 0
d0_20 - f0_20 >= 0
d0_20 - f0_52 >= 0
x0_52 + f0_20 + f0_52 <= 2
x0_52 + f0_20 + f0_52 - 2 d0_20 >= 0
d0_21 - x0_53 >= 0
d0_21 - f0_21 >= 0
d0_21 - f0_53 >= 0
x0_53 + f0_21 + f0_53 <= 2
x0_53 + f0_21 + f0_53 - 2 d0_21 >= 0
d0_22 - x0_54 >= 0
d0_22 - f0_22 >= 0
d0_22 - f0_54 >= 0
x0_54 + f0_22 + f0_54 <= 2
x0_54 + f0_22 + f0_54 - 2 d0_22 >= 0
d0_23 - x0_55 >= 0
d0_23 - f0_23 >= 0
d0_23 - f0_55 >= 0
x0_55 + f0_23 + f0_55 <= 2
x0_55 + f0_23 + f0_55 - 2 d0_23 >= 0
d0_24 - x0_56 >= 0
d0_24 - f0_24 >= 0
d0_24 - f0_56 >= 0
x0_56 + f0_24 + f0_56 <= 2
x0_56 + f0_24 + f0_56 - 2 d0_24 >= 0
d0_25 - x0_57 >= 0
d0_25 - f0_25 >= 0
d0_25 - f0_57 >= 0
x0_57 + f0_25 + f0_57 <= 2
x0_57 + f0_25 + f0_57 - 2 d0_25 >= 0
d0_26 - x0_58 >= 0
d0_26 - f0_26 >= 0
d0_26 - f0_58 >= 0
x0_58 + f0_26 + f0_58 <= 2
x0_58 + f0_26 + f0_58 - 2 d0_26 >= 0
d0_27 - x0_59 >= 0
d0_27 - f0_27 >= 0
d0_27 - f0_59 >= 0
x0_59 + f0_27 + f0_59 <= 2
x0_59 + f0_27 + f0_59 - 2 d0_27 >= 0
d0_28 - x0_60 >= 0
d0_28 - f0_28 >= 0
d0_28 - f0_60 >= 0
x0_60 + f0_28 + f0_60 <= 2
x0_60 + f0_28 + f0_60 - 2 d0_28 >= 0
d0_29 - x0_61 >= 0
d0_29 - f0_29 >= 0
d0_29 - f0_61 >= 0
x0_61 + f0_29 + f0_61 <= 2
x0_61 + f0_29 + f0_61 - 2 d0_29 >= 0
d0_30 - x0_62 >= 0
d0_30 - f0_30 >= 0
d0_30 - f0_62 >= 0
x0_62 + f0_30 + f0_62 <= 2
x0_62 + f0_30 + f0_62 - 2 d0_30 >= 0
d0_31 - x0_63 >= 0
d0_31 - f0_31 >= 0
d0_31 - f0_63 >= 0
x0_63 + f0_31 + f0_63 <= 2
x0_63 + f0_31 + f0_63 - 2 d0_31 >= 0
x0_9 - s0_8 <= 0
x0_13 - s0_8 <= 0
x0_1 - s0_8 <= 0
x0_5 - s0_8 <= 0
x0_9 + x0_13 + x0_1 + x0_5 - s0_8 >= 0
4 x0_9 + 4 x0_13 + 4 x0_1 + 4 x0_5 - f0_64 - f0_65 - f0_66 - f0_67 >= 0
4 f0_64 + 4 f0_65 + 4 f0_66 + 4 f0_67 - x0_9 - x0_13 - x0_1 - x0_5 >= 0
x0_12 - s0_9 <= 0
x0_8 - s0_9 <= 0
x0_4 - s0_9 <= 0
x0_0 - s0_9 <= 0
x0_12 + x0_8 + x0_4 + x0_0 - s0_9 >= 0
4 x0_12 + 4 x0_8 + 4 x0_4 + 4 x0_0 - f0_68 - f0_69 - f0_70 - f0_71 >= 0
4 f0_68 + 4 f0_69 + 4 f0_70 + 4 f0_71 - x0_12 - x0_8 - x0_4 - x0_0 >= 0
x0_20 - s0_10 <= 0
x0_16 - s0_10 <= 0
x0_28 - s0_10 <= 0
x0_24 - s0_10 <= 0
x0_20 + x0_16 + x0_28 + x0_24 - s0_10 >= 0
4 x0_20 + 4 x0_16 + 4 x0_28 + 4 x0_24 - f0_72 - f0_73 - f0_74 - f0_75 >= 0
4 f0_72 + 4 f0_73 + 4 f0_74 + 4 f0_75 - x0_20 - x0_16 - x0_28 - x0_24 >= 0
x0_17 - s0_11 <= 0
x0_21 - s0_11 <= 0
x0_25 - s0_11 <= 0
x0_29 - s0_11 <= 0
x0_17 + x0_21 + x0_25 + x0_29 - s0_11 >= 0
4 x0_17 + 4 x0_21 + 4 x0_25 + 4 x0_29 - f0_76 - f0_77 - f0_78 - f0_79 >= 0
4 f0_76 + 4 f0_77 + 4 f0_78 + 4 f0_79 - x0_17 - x0_21 - x0_25 - x0_29 >= 0
x0_22 - s0_12 <= 0
x0_18 - s0_12 <= 0
x0_30 - s0_12 <= 0
x0_26 - s0_12 <= 0
x0_22 + x0_18 + x0_30 + x0_26 - s0_12 >= 0
4 x0_22 + 4 x0_18 + 4 x0_30 + 4 x0_26 - f0_80 - f0_81 - f0_82 - f0_83 >= 0
4 f0_80 + 4 f0_81 + 4 f0_82 + 4 f0_83 - x0_22 - x0_18 - x0_30 - x0_26 >= 0
x0_19 - s0_13 <= 0
x0_23 - s0_13 <= 0
x0_27 - s0_13 <= 0
x0_31 - s0_13 <= 0
x0_19 + x0_23 + x0_27 + x0_31 - s0_13 >= 0
4 x0_19 + 4 x0_23 + 4 x0_27 + 4 x0_31 - f0_84 - f0_85 - f0_86 - f0_87 >= 0
4 f0_84 + 4 f0_85 + 4 f0_86 + 4 f0_87 - x0_19 - x0_23 - x0_27 - x0_31 >= 0
x0_11 - s0_14 <= 0
x0_15 - s0_14 <= 0
x0_3 - s0_14 <= 0
x0_7 - s0_14 <= 0
x0_11 + x0_15 + x0_3 + x0_7 - s0_14 >= 0
4 x0_11 + 4 x0_15 + 4 x0_3 + 4 x0_7 - f0_88 - f0_89 - f0_90 - f0_91 >= 0
4 f0_88 + 4 f0_89 + 4 f0_90 + 4 f0_91 - x0_11 - x0_15 - x0_3 - x0_7 >= 0
x0_14 - s0_15 <= 0
x0_10 - s0_15 <= 0
x0_6 - s0_15 <= 0
x0_2 - s0_15 <= 0
x0_14 + x0_10 + x0_6 + x0_2 - s0_15 >= 0
4 x0_14 + 4 x0_10 + 4 x0_6 + 4 x0_2 - f0_92 - f0_93 - f0_94 - f0_95 >= 0
4 f0_92 + 4 f0_93 + 4 f0_94 + 4 f0_95 - x0_14 - x0_10 - x0_6 - x0_2 >= 0
d0_32 - f0_32 >= 0
d0_32 - f0_64 >= 0
d0_32 - x1_20 >= 0
f0_32 + f0_64 + x1_20 <= 2
f0_32 + f0_64 + x1_20 - 2 d0_32 >= 0
d0_33 - f0_33 >= 0
d0_33 - f0_65 >= 0
d0_33 - x1_16 >= 0
f0_33 + f0_65 + x1_16 <= 2
f0_33 + f0_65 + x1_16 - 2 d0_33 >= 0
d0_34 - f0_34 >= 0
d0_34 - f0_66 >= 0
d0_34 - x1_28 >= 0
f0_34 + f0_66 + x1_28 <= 2
f0_34 + f0_66 + x1_28 - 2 d0_34 >= 0
d0_35 - f0_35 >= 0
d0_35 - f0_67 >= 0
d0_35 - x1_24 >= 0
f0_35 + f0_67 + x1_24 <= 2
f0_35 + f0_67 + x1_24 - 2 d0_35 >= 0
d0_36 - f0_36 >= 0
d0_36 - f0_68 >= 0
d0_36 - x1_17 >= 0
f0_36 + f0_68 + x1_17 <= 2
f0_36 + f0_68 + x1_17 - 2 d0_36 >= 0
d0_37 - f0_37 >= 0
d0_37 - f0_69 >= 0
d0_37 - x1_21 >= 0
f0_37 + f0_69 + x1_21 <= 2
f0_37 + f0_69 + x1_21 - 2 d0_37 >= 0
d0_38 - f0_38 >= 0
d0_38 - f0_70 >= 0
d0_38 - x1_25 >= 0
f0_38 + f0_70 + x1_25 <= 2
f0_38 + f0_70 + x1_25 - 2 d0_38 >= 0
d0_39 - f0_39 >= 0
d0_39 - f0_71 >= 0
d0_39 - x1_29 >= 0
f0_39 + f0_71 + x1_29 <= 2
f0_39 + f0_71 + x1_29 - 2 d0_39 >= 0
d0_40 - f0_40 >= 0
d0_40 - f0_72 >= 0
d0_40 - x1_22 >= 0
f0_40 + f0_72 + x1_22 <= 2
f0_40 + f0_72 + x1_22 - 2 d0_40 >= 0
d0_41 - f0_41 >= 0
d0_41 - f0_73 >= 0
d0_41 - x1_18 >= 0
f0_41 + f0_73 + x1_18 <= 2
f0_41 + f0_73 + x1_18 - 2 d0_41 >= 0
d0_42 - f0_42 >= 0
d0_42 - f0_74 >= 0
d0_42 - x1_30 >= 0
f0_42 + f0_74 + x1_30 <= 2
f0_42 + f0_74 + x1_30 - 2 d0_42 >= 0
d0_43 - f0_43 >= 0
d0_43 - f0_75 >= 0
d0_43 - x1_26 >= 0
f0_43 + f0_75 + x1_26 <= 2
f0_43 + f0_75 + x1_26 - 2 d0_43 >= 0
d0_44 - f0_44 >= 0
d0_44 - f0_76 >= 0
d0_44 - x1_19 >= 0
f0_44 + f0_76 + x1_19 <= 2
f0_44 + f0_76 + x1_19 - 2 d0_44 >= 0
d0_45 - f0_45 >= 0
d0_45 - f0_77 >= 0
d0_45 - x1_23 >= 0
f0_45 + f0_77 + x1_23 <= 2
f0_45 + f0_77 + x1_23 - 2 d0_45 >= 0
d0_46 - f0_46 >= 0
d0_46 - f0_78 >= 0
d0_46 - x1_27 >= 0
f0_46 + f0_78 + x1_27 <= 2
f0_46 + f0_78 + x1_27 - 2 d0_46 >= 0
d0_47 - f0_47 >= 0
d0_47 - f0_79 >= 0
d0_47 - x1_31 >= 0
f0_47 + f0_79 + x1_31 <= 2
f0_47 + f0_79 + x1_31 - 2 d0_47 >= 0
d0_48 - f0_48 >= 0
d0_48 - f0_80 >= 0
d0_48 - x1_11 >= 0
f0_48 + f0_80 + x1_11 <= 2
f0_48 + f0_80 + x1_11 - 2 d0_48 >= 0
d0_49 - f0_49 >= 0
d0_49 - f0_81 >= 0
d0_49 - x1_15 >= 0
f0_49 + f0_81 + x1_15 <= 2
f0_49 + f0_81 + x1_15 - 2 d0_49 >= 0
d0_50 - f0_50 >= 0
d0_50 - f0_82 >= 0
d0_50 - x1_3 >= 0
f0_50 + f0_82 + x1_3 <= 2
f0_50 + f0_82 + x1_3 - 2 d0_50 >= 0
d0_51 - f0_51 >= 0
d0_51 - f0_83 >= 0
d0_51 - x1_7 >= 0
f0_51 + f0_83 + x1_7 <= 2
f0_51 + f0_83 + x1_7 - 2 d0_51 >= 0
d0_52 - f0_52 >= 0
d0_52 - f0_84 >= 0
d0_52 - x1_14 >= 0
f0_52 + f0_84 + x1_14 <= 2
f0_52 + f0_84 + x1_14 - 2 d0_52 >= 0
d0_53 - f0_53 >= 0
d0_53 - f0_85 >= 0
d0_53 - x1_10 >= 0
f0_53 + f0_85 + x1_10 <= 2
f0_53 + f0_85 + x1_10 - 2 d0_53 >= 0
d0_54 - f0_54 >= 0
d0_54 - f0_86 >= 0
d0_54 - x1_6 >= 0
f0_54 + f0_86 + x1_6 <= 2
f0_54 + f0_86 + x1_6 - 2 d0_54 >= 0
d0_55 - f0_55 >= 0
d0_55 - f0_87 >= 0
d0_55 - x1_2 >= 0
f0_55 + f0_87 + x1_2 <= 2
f0_55 + f0_87 + x1_2 - 2 d0_55 >= 0
d0_56 - f0_56 >= 0
d0_56 - f0_88 >= 0
d0_56 - x1_9 >= 0
f0_56 + f0_88 + x1_9 <= 2
f0_56 + f0_88 + x1_9 - 2 d0_56 >= 0
d0_57 - f0_57 >= 0
d0_57 - f0_89 >= 0
d0_57 - x1_13 >= 0
f0_57 + f0_89 + x1_13 <= 2
f0_57 + f0_89 + x1_13 - 2 d0_57 >= 0
d0_58 - f0_58 >= 0
d0_58 - f0_90 >= 0
d0_58 - x1_1 >= 0
f0_58 + f0_90 + x1_1 <= 2
f0_58 + f0_90 + x1_1 - 2 d0_58 >= 0
d0_59 - f0_59 >= 0
d0_59 - f0_91 >= 0
d0_59 - x1_5 >= 0
f0_59 + f0_91 + x1_5 <= 2
f0_59 + f0_91 + x1_5 - 2 d0_59 >= 0
d0_60 - f0_60 >= 0
d0_60 - f0_92 >= 0
d0_60 - x1_12 >= 0
f0_60 + f0_92 + x1_12 <= 2
f0_60 + f0_92 + x1_12 - 2 d0_60 >= 0
d0_61 - f0_61 >= 0
d0_61 - f0_93 >= 0
d0_61 - x1_8 >= 0
f0_61 + f0_93 + x1_8 <= 2
f0_61 + f0_93 + x1_8 - 2 d0_61 >= 0
d0_62 - f0_62 >= 0
d0_62 - f0_94 >= 0
d0_62 - x1_4 >= 0
f0_62 + f0_94 + x1_4 <= 2
f0_62 + f0_94 + x1_4 - 2 d0_62 >= 0
d0_63 - f0_63 >= 0
d0_63 - f0_95 >= 0
d0_63 - x1_0 >= 0
f0_63 + f0_95 + x1_0 <= 2
f0_63 + f0_95 + x1_0 - 2 d0_63 >= 0


Binary
x0_0
x0_1
x0_2
x0_3
x0_4
x0_5
x0_6
x0_7
x0_8
x0_9
x0_10
x0_11
x0_12
x0_13
x0_14
x0_15
x0_16
x0_17
x0_18
x0_19
x0_20
x0_21
x0_22
x0_23
x0_24
x0_25
x0_26
x0_27
x0_28
x0_29
x0_30
x0_31
x0_32
x0_33
x0_34
x0_35
x0_36
x0_37
x0_38
x0_39
x0_40
x0_41
x0_42
x0_43
x0_44
x0_45
x0_46
x0_47
x0_48
x0_49
x0_50
x0_51
x0_52
x0_53
x0_54
x0_55
x0_56
x0_57
x0_58
x0_59
x0_60
x0_61
x0_62
x0_63
x1_0
x1_1
x1_2
x1_3
x1_4
x1_5
x1_6
x1_7
x1_8
x1_9
x1_10
x1_11
x1_12
x1_13
x1_14
x1_15
x1_16
x1_17
x1_18
x1_19
x1_20
x1_21
x1_22
x1_23
x1_24
x1_25
x1_26
x1_27
x1_28
x1_29
x1_30
x1_31
x0_0
x0_1
x0_2
x0_3
x0_4
x0_5
x0_6
x0_7
x0_8
x0_9
x0_10
x0_11
x0_12
x0_13
x0_14
x0_15
x0_16
x0_17
x0_18
x0_19
x0_20
x0_21
x0_22
x0_23
x0_24
x0_25
x0_26
x0_27
x0_28
x0_29
x0_30
x0_31
x1_0
x1_1
x1_2
x1_3
x1_4
x1_5
x1_6
x1_7
x1_8
x1_9
x1_10
x1_11
x1_12
x1_13
x1_14
x1_15
x1_16
x1_17
x1_18
x1_19
x1_20
x1_21
x1_22
x1_23
x1_24
x1_25
x1_26
x1_27
x1_28
x1_29
x1_30
x1_31
x0_0
x0_1
x0_2
x0_3
x0_4
x0_5
x0_6
x0_7
x0_8
x0_9
x0_10
x0_11
x0_12
x0_13
x0_14
x0_15
x0_16
x0_17
x0_18
x0_19
x0_20
x0_21
x0_22
x0_23
x0_24
x0_25
x0_26
x0_27
x0_28
x0_29
x0_30
x0_31
f0_0
f0_1
f0_2
f0_3
f0_4
f0_5
f0_6
f0_7
f0_8
f0_9
f0_10
f0_11
f0_12
f0_13
f0_14
f0_15
f0_16
f0_17
f0_18
f0_19
f0_20
f0_21
f0_22
f0_23
f0_24
f0_25
f0_26
f0_27
f0_28
f0_29
f0_30
f0_31
f0_32
f0_33
f0_34
f0_35
f0_36
f0_37
f0_38
f0_39
f0_40
f0_41
f0_42
f0_43
f0_44
f0_45
f0_46
f0_47
f0_48
f0_49
f0_50
f0_51
f0_52
f0_53
f0_54
f0_55
f0_56
f0_57
f0_58
f0_59
f0_60
f0_61
f0_62
f0_63
f0_64
f0_65
f0_66
f0_67
f0_68
f0_69
f0_70
f0_71
f0_72
f0_73
f0_74
f0_75
f0_76
f0_77
f0_78
f0_79
f0_80
f0_81
f0_82
f0_83
f0_84
f0_85
f0_86
f0_87
f0_88
f0_89
f0_90
f0_91
f0_92
f0_93
f0_94
f0_95
s0_0
s0_1
s0_2
s0_3
s0_4
s0_5
s0_6
s0_7
s0_8
s0_9
s0_10
s0_11
s0_12
s0_13
s0_14
s0_15
d0_0
d0_1
d0_2
d0_3
d0_4
d0_5
d0_6
d0_7
d0_8
d0_9
d0_10
d0_11
d0_12
d0_13
d0_14
d0_15
d0_16
d0_17
d0_18
d0_19
d0_20
d0_21
d0_22
d0_23
d0_24
d0_25
d0_26
d0_27
d0_28
d0_29
d0_30
d0_31
d0_32
d0_33
d0_34
d0_35
d0_36
d0_37
d0_38
d0_39
d0_40
d0_41
d0_42
d0_43
d0_44
d0_45
d0_46
d0_47
d0_48
d0_49
d0_50
d0_51
d0_52
d0_53
d0_54
d0_55
d0_56
d0_57
d0_58
d0_59
d0_60
d0_61
d0_62
d0_63
